10001010000100000010001011100101100110111001001010010011100110000010000000011011101010000000110101010111101110110011100100011011001010101110000001111010011111001110000110000111011011001110100011110011011110110001111110011010110110011011000000100110001110101110011000100000000010101001010001110101101110011001000011011011010010110101000011101010001001000100111010001100000110000001110000111001110001100000000011110011001000111011001100101110111111000010101100000100101111101111110110010001000111101100100011010000100111011100001100010111101011100110011011001011010100110000001101100010000110000101000000111000011011101000101110011000000010101010010111001110100110001000011101010010000010000011011011110000101000100000000000000000001101101000101010101110000000100000000011111100100010000011010110100111000000110001010101111011100101100000001100010101101110111101011000001001001001001011000000110101000000000001101011010011100110000000000010000010010011101001001100101111100010101111000001001001010001111000111010110101011000110110111111001010010000101101100011010010111101110001011100101010000100010011100110101110101110011110111000101001001100010010111110101010011100101011101111100000011101010000110100101110111111000101000100010000100010011000111000101010100100010111101110000110